c A SAT instance generated from a 3-CNF formula that had 40 clauses and 70 variables
p cnf 70 43
-63 37 -55 0
33 -44 -51 0
27 -2 55 0
-12 -56 -63 0
24 13 38 0
48 -36 -18 0
58 -17 65 0
35 -3 70 0
26 -14 -21 0
-69 30 -53 0
-35 -49 -56 0
-69 -22 -31 0
8 -41 58 0
67 -27 25 0
70 -15 18 0
52 29 -31 0
23 49 45 0
-15 -27 19 0
32 -15 -36 0
-58 2 13 0
67 -28 22 0
-67 47 43 0
-70 -56 -28 0
7 -55 -36 0
-15 20 10 0
-68 -24 8 0
-63 2 -39 0
9 -30 -56 0
-49 19 11 0
-10 -14 -30 0
-38 -17 -24 0
22 60 -59 0
-31 -40 60 0
-68 65 47 0
37 14 -23 0
-22 -47 -54 0
32 31 -34 0
11 45 59 0
12 -55 58 0
-37 7 35 0
62 63 64 0 
1 3 5 7 0
7 0
